Route #1: 8 46 47 63 2 58 54 34 23
Route #2: 10 41 13 32 60 16 24 61 52 56
Route #3: 38 43 28 12 22 18
Route #4: 6 25 29
Route #5: 15 11 57 17 30 3
Route #6: 1 27 14 35 26 21 7 40 36 39 44 49 9
Route #7: 62 48 33
Route #8: 42 20 19 51 53 45
Route #9: 4 5 50 31 59 55 37
Cost 1411
Time 0.235187
